20191128 29100.00 17500.00
20180518 31300.00 16000.00
20171130 29955.45 9425.59
20171108 29955.45 9425.59
20170906 29955.45 9333.00
20170519 16322.43 5490.00
20161104 16322.43 5490.00
20160616 16200.00 5490.00
20150630 8100.00 2025.00
